Package: ompr.xpress
Title: A solver for 'ompr' that uses the FICO Xpress algorithm
Version: 0.0.0.9200
Authors@R: 
    person("Brandon", "Dahl", , "bmdahl1@gmail.com", role = c("aut", "cre"))
Description: An 'ompr' interface to FICO's XPress algorithm. 
License: MIT + file LICENSE
Encoding: UTF-8
Roxygen: list(markdown = TRUE)
RoxygenNote: 7.3.1
Imports: 
    ompr,
    utils
Suggests: 
    testthat (>= 3.0.0)
Config/testthat/edition: 3
Depends: 
    xpress
